(declare-fun syscall_stub_readlink_269_64 () (_ BitVec 64))
(assert (and (= #b0 ((_ extract 31 31) syscall_stub_readlink_269_64))))
(maximize (bvadd ((_ sign_extend 32) ((_ extract 31 0) syscall_stub_readlink_269_64))
       #x07fffffffffee5b0))
(check-sat)